g3 10 1 0	# problem ex9_1_7
 23 21 1 0 9	# vars, constraints, objectives, ranges, eqns
 0 0	# nonlinear constraints, objectives
 0 0	# network constraints: nonlinear, linear
 0 0 0	# nonlinear vars in constraints, objectives, both
 0 0 0 1	# linear network variables; functions; arith, flags
 0 0 0 0 0	# discrete variables: binary, integer, nonlinear (b,c,o)
 56 5	# nonzeros in Jacobian, gradients
 0 0	# max name lengths: constraints, variables
 0 0 0 0 0	# common exprs: b,c,o,c1,o1
b
2 0
2 0
2 0
2 0
2 0
2 0
2 0
2 0
2 0
2 0
2 0
2 0
2 0
2 0
2 0
2 0
2 0
0 0 1
0 0 1
0 0 1
0 0 1
0 0 1
0 0 1
r
4 1
4 1
4 1
4 0
4 0
4 0
4 -1
4 -1
4 -2
1 0
1 0
1 0
1 0
1 0
1 0
1 10
1 10
1 10
1 10
1 10
1 10
C0
n0
C1
n0
C2
n0
C3
n0
C4
n0
C5
n0
C6
n0
C7
n0
C8
n0
C9
n0
C10
n0
C11
n0
C12
n0
C13
n0
C14
n0
C15
n0
C16
n0
C17
n0
C18
n0
C19
n0
C20
n0
O0 0
n0
k22
1
2
6
10
14
16
18
20
22
24
26
30
34
38
40
42
44
46
48
50
52
54
J0 4
2 -1
3 1
4 1
5 1
J1 5
0 2
2 -1
3 2
4 -0.5
6 1
J2 5
1 2
2 2
3 -1
4 -0.5
7 1
J3 2
2 -1
8 1
J4 2
3 -1
9 1
J5 2
4 -1
10 1
J6 4
11 -1
12 -1
13 2
14 -1
J7 4
11 1
12 2
13 -1
15 -1
J8 4
11 1
12 -0.5
13 -0.5
16 -1
J9 2
11 1
17 -10
J10 2
12 1
18 -10
J11 2
13 1
19 -10
J12 2
14 1
20 -10
J13 2
15 1
21 -10
J14 2
16 1
22 -10
J15 2
5 1
17 10
J16 2
6 1
18 10
J17 2
7 1
19 10
J18 2
8 1
20 10
J19 2
9 1
21 10
J20 2
10 1
22 10
G0 5
0 -8
1 -4
2 4
3 -40
4 4
